Traveling Salesman Problem/TSP_generados/Aleatorio1620390891_7.tsp
NAME: Aleatorio1620390891_7.tsp
COMMENT: Randomly generated scenario
TYPE: TSP
DIMENSION: 7
EDGE_WEIGHT_TYPE: ATT
NODE_COORD_SECTION
1 32.39 2.18
2 13.0 31.24
3 23.54 26.53
4 41.69 28.87
5 3.1 32.36
6 32.54 20.37
7 8.46 31.72
