Traveling Salesman Problem/TSP_generados/Aleatorio1620390891_7.opt.tour
NAME: Aleatorio1620390891_7.opt.tour
COMMENT: Optimal solution for Aleatorio1620390891_7 (112.54397112398514)
TYPE: TOUR
DIMENSION: 7
TOUR_SECTION
1 5 7 2 3 4 6
-1
EOF
